Gurobi Optimizer version 9.1.2 build v9.1.2rc0 (linux64)
Thread count: 36 physical cores, 72 logical processors, using up to 32 threads
Optimize a model with 12 rows, 57 columns and 590 nonzeros
Model fingerprint: 0xf32eec78
Model has 47 quadratic constraints
Coefficient statistics:
  Matrix range     [2e-05, 3e+00]
  QMatrix range    [1e+00, 1e+00]
  QLMatrix range   [1e+00, 1e+00]
  Objective range  [8e-03, 7e-01]
  Bounds range     [1e+00, 1e+00]
  RHS range        [1e+00, 1e+00]
Presolve removed 9 rows and 0 columns

Continuous model is non-convex -- solving as a MIP.

Presolve removed 9 rows and 0 columns
Presolve time: 0.00s
Presolved: 189 rows, 57 columns, 443 nonzeros
Presolved model has 47 bilinear constraint(s)
Variable types: 57 continuous, 0 integer (0 binary)

Root relaxation: objective -1.743721e+00, 44 iterations, 0.00 seconds

    Nodes    |    Current Node    |     Objective Bounds      |     Work
 Expl Unexpl |  Obj  Depth IntInf | Incumbent    BestBd   Gap | It/Node Time

     0     0   -1.74372    0   38          -   -1.74372      -     -    0s
H    0     0                       0.6147548   -1.74372   384%     -    0s
     0     0   -1.64739    0    1    0.61475   -1.64739   368%     -    0s
H    0     0                      -1.6450460   -1.64739  0.14%     -    0s
     0     0     cutoff    0        -1.64505   -1.64505  0.00%     -    0s

Cutting planes:
  RLT: 25
  BQP: 3

Explored 1 nodes (76 simplex iterations) in 0.01 seconds
Thread count was 32 (of 72 available processors)

Solution count 2: -1.64505 0.614755 
No other solutions better than -1.64505

Optimal solution found (tolerance 1.00e-04)
Best objective -1.645045978473e+00, best bound -1.645045978473e+00, gap 0.0000%

User-callback calls 78, time in user-callback 0.00 sec
Gurobi Optimizer version 9.1.2 build v9.1.2rc0 (linux64)
Thread count: 36 physical cores, 72 logical processors, using up to 32 threads
Optimize a model with 60 rows, 312 columns and 16100 nonzeros
Model fingerprint: 0x8c29225f
Model has 262 quadratic constraints
Coefficient statistics:
  Matrix range     [4e-07, 7e+00]
  QMatrix range    [1e+00, 1e+00]
  QLMatrix range   [1e+00, 1e+00]
  Objective range  [3e-03, 1e+00]
  Bounds range     [1e+00, 1e+00]
  RHS range        [1e+00, 1e+00]
Presolve removed 15 rows and 0 columns

Continuous model is non-convex -- solving as a MIP.

Presolve removed 15 rows and 0 columns
Presolve time: 0.01s
Presolved: 1081 rows, 312 columns, 13447 nonzeros
Presolved model has 262 bilinear constraint(s)
Variable types: 312 continuous, 0 integer (0 binary)

Root relaxation: objective -2.137402e+01, 357 iterations, 0.02 seconds

    Nodes    |    Current Node    |     Objective Bounds      |     Work
 Expl Unexpl |  Obj  Depth IntInf | Incumbent    BestBd   Gap | It/Node Time

     0     0  -21.37402    0  156          -  -21.37402      -     -    0s
     0     0  -20.06567    0   78          -  -20.06567      -     -    0s
     0     0  -20.02795    0   78          -  -20.02795      -     -    0s
     0     0  -19.99699    0   91          -  -19.99699      -     -    0s
     0     0  -19.99521    0   91          -  -19.99521      -     -    0s
     0     0  -19.97417    0  114          -  -19.97417      -     -    0s
     0     0  -19.97161    0   80          -  -19.97161      -     -    0s
     0     0  -19.96569    0   83          -  -19.96569      -     -    0s
     0     0  -19.96531    0   83          -  -19.96531      -     -    0s
     0     0  -19.96288    0  109          -  -19.96288      -     -    0s
     0     0  -19.96287    0  115          -  -19.96287      -     -    0s
     0     0  -19.96152    0  115          -  -19.96152      -     -    0s
     0     0  -19.96151    0  115          -  -19.96151      -     -    0s
     0     0  -19.96128    0  115          -  -19.96128      -     -    0s
H    0     0                     -18.8345994  -19.96128  5.98%     -    0s
     0     2  -19.96128    0  115  -18.83460  -19.96128  5.98%     -    0s
* 2110   618              45     -18.8380443  -19.18533  1.84%  46.5    2s
* 2231   645              42     -18.8386513  -19.18533  1.84%  46.0    2s
* 2347   701              43     -18.8386711  -19.18533  1.84%  45.5    2s
* 3186  1008              41     -18.8403007  -19.15002  1.64%  41.2    2s
* 3400  1083              57     -18.8499455  -19.15002  1.59%  40.3    2s
* 3980  1329              40     -18.8501995  -19.08894  1.27%  38.5    3s
* 3983  1329              42     -18.8502112  -19.08894  1.27%  38.4    3s
* 3984  1329              42     -18.8502348  -19.08894  1.27%  38.4    3s
* 4179  1411              47     -18.8502924  -19.08894  1.27%  37.7    3s
* 4507  1489              51     -18.8508775  -19.03803  0.99%  36.8    3s
* 4508  1489              51     -18.8508797  -19.03803  0.99%  36.8    3s
* 4511  1489              51     -18.8508803  -19.03803  0.99%  36.7    3s
* 5396  1830              49     -18.8518312  -19.03803  0.99%  34.6    3s
* 5717  1871              51     -18.8518453  -19.03803  0.99%  33.6    3s
* 5721  1871              51     -18.8518540  -19.03803  0.99%  33.6    3s
* 5999  1906              54     -18.8522540  -19.03803  0.99%  33.0    3s
* 6004  1906              54     -18.8523105  -19.03803  0.99%  32.9    3s
* 6007  1906              54     -18.8523112  -19.03803  0.99%  32.9    3s
* 6053  1906              46     -18.8525159  -19.03803  0.98%  32.9    3s
* 6072  1906              55     -18.8527199  -19.03803  0.98%  32.8    3s
* 6073  1906              55     -18.8527401  -19.03803  0.98%  32.8    3s
* 6077  1906              57     -18.8532834  -19.03803  0.98%  32.8    3s
* 6079  1906              58     -18.8533977  -19.03803  0.98%  32.8    3s
* 6082  1906              57     -18.8534152  -19.03803  0.98%  32.8    3s
* 6083  1906              57     -18.8535491  -19.03803  0.98%  32.8    3s
  8082  1252  -19.03803   18   81  -18.85355  -19.03803  0.98%  39.6    5s
* 8895  1147              60     -18.8539332  -19.03803  0.98%  39.7    5s
* 8949  1120              64     -18.8540580  -19.03803  0.98%  39.8    5s
* 9021  1029              60     -18.8611684  -19.03803  0.94%  39.6    5s
* 9023   965              61     -18.8611685  -19.03803  0.94%  39.6    5s
* 9151   901              62     -18.8647243  -19.03803  0.92%  39.6    5s
*10069  1059              50     -18.8647948  -19.03803  0.92%  39.2    5s
*10161  1059              68     -18.8861575  -19.03803  0.80%  39.1    5s
*10165  1059              70     -18.8861577  -19.03803  0.80%  39.1    5s
*13178  1428              57     -18.8861883  -19.03803  0.80%  37.4    6s
*16130  1895              54     -18.8863751  -18.95404  0.36%  35.6    6s
*16133  1895              54     -18.8864186  -18.95404  0.36%  35.6    6s
*16646  1881              70     -18.8872359  -18.95184  0.34%  35.2    6s
*17136  1817              72     -18.8875436  -18.94251  0.29%  34.8    6s
*17137  1817              72     -18.8876034  -18.94251  0.29%  34.8    6s
*20022  1813              63     -18.8876439  -18.92287  0.19%  33.0    7s
*20075  1813              63     -18.8876456  -18.92287  0.19%  33.0    7s
*20079  1813              64     -18.8876461  -18.92287  0.19%  33.0    7s
*20402  1813              55     -18.8878021  -18.92287  0.19%  32.7    7s
*24526  1963              55     -18.8878400  -18.90795  0.11%  30.3    8s
*24527  1963              55     -18.8878431  -18.90795  0.11%  30.3    8s
*24529  1962              55     -18.8878513  -18.90795  0.11%  30.3    8s
*24530  1957              55     -18.8878546  -18.90795  0.11%  30.3    8s
*24534  1956              56     -18.8878559  -18.90795  0.11%  30.3    8s
*24535  1955              56     -18.8878576  -18.90795  0.11%  30.3    8s
*25775  2327              58     -18.8878607  -18.90661  0.10%  29.5    8s
*26555  2493              61     -18.8880298  -18.90661  0.10%  29.0    8s
*26556  2493              61     -18.8880302  -18.90661  0.10%  29.0    8s
*27360  2493              68     -18.8880317  -18.90661  0.10%  28.5    8s
*27475  2371              67     -18.8883067  -18.90577  0.09%  28.4    8s
*27478  2371              69     -18.8883068  -18.90577  0.09%  28.4    8s
*27492  2257              66     -18.8886151  -18.90511  0.09%  28.4    8s
*27493  2257              66     -18.8886152  -18.90511  0.09%  28.4    8s
*27741  2055              68     -18.8891277  -18.90251  0.07%  28.3    8s
*27742  2055              68     -18.8891285  -18.90251  0.07%  28.3    8s
 36438  1812     cutoff   37       -18.88913  -18.89446  0.03%  24.6   10s
*44014  1246              68     -18.8891301  -18.89154  0.01%  22.1   10s
*44081  1246              67     -18.8891552  -18.89154  0.01%  22.1   10s

Explored 46934 nodes (1002522 simplex iterations) in 11.22 seconds
Thread count was 32 (of 72 available processors)

Solution count 10: -18.8892 -18.8891 -18.8891 ... -18.888

Optimal solution found (tolerance 1.00e-04)
Best objective -1.888915218885e+01, best bound -1.889033299512e+01, gap 0.0063%

User-callback calls 95026, time in user-callback 0.02 sec



objective value: -18.88915218885024
objective bound: -18.890332995115983
x_opt: [0.9947507582900337, 0.9133704380164469, 0.0, 0.3408555443406003, 0.0, 0.0, 1.0, 0.0, 0.0, 0.0, 1.0, 0.0, 1.0, 1.0, 0.49251317234769054, 1.0, 0.0, 1.0, 0.0, 0.0, 0.0, 0.09835212027606749, 0.0, 0.5250514042423221, 0.0, 0.6277593296614481, 0.0, 1.0, 0.0, 0.0, 1.0, 1.0, 0.0, 0.6175995317751861, 1.0, 0.9455447084425781, 0.0, 1.0, 0.0, 1.0, 1.0, 0.0, 0.869620042700353, 0.0, 1.8700728127931038e-22, 0.054613467241927977, 0.3466133265460223, 0.5154684935997209, 0.007381682536340263, 1.5932804391922508e-20]
GUROBI solution time: 11.220367908477783




